1641193200
1641222000
1641279600
1641308400
1641366000
1641394800
1641452400
1641481200
1641538800
1641567600
1641711600
1641740400
1641884400
1641913200
1641970800
1641999600
1642057200
1642086000
1642143600
1642172400
1642489200
1642518000
1642575600
1642604400
1642662000
1642690800
1642748400
1642777200
1643007600
1643022000
1643094000
1643122800
1643180400
1643209200
1643266800
1643295600
1643353200
1643382000
1643612400
1643641200
